************************************************************************
file with basedata            : md345_.bas
initial value random generator: 1205819386
************************************************************************
projects                      :  1
jobs (incl. supersource/sink ):  22
horizon                       :  155
RESOURCES
  - renewable                 :  2   R
  - nonrenewable              :  2   N
  - doubly constrained        :  0   D
************************************************************************
PROJECT INFORMATION:
pronr.  #jobs rel.date duedate tardcost  MPM-Time
    1     20      0       26       13       26
************************************************************************
PRECEDENCE RELATIONS:
jobnr.    #modes  #successors   successors
   1        1          3           2   3   4
   2        3          2           6   7
   3        3          2           8  11
   4        3          3           5   7  11
   5        3          2          10  12
   6        3          2           9  16
   7        3          3           8  10  12
   8        3          3           9  14  21
   9        3          2          19  20
  10        3          2          13  19
  11        3          3          12  17  21
  12        3          1          20
  13        3          2          15  21
  14        3          2          15  16
  15        3          1          17
  16        3          2          17  19
  17        3          1          18
  18        3          1          20
  19        3          1          22
  20        3          1          22
  21        3          1          22
  22        1          0        
************************************************************************
REQUESTS/DURATIONS:
jobnr. mode duration  R 1  R 2  N 1  N 2
------------------------------------------------------------------------
  1      1     0       0    0    0    0
  2      1     1       0    7    0    6
         2     9       0    7    0    5
         3    10       0    7    7    0
  3      1     1       4    0    0    8
         2     5       0    6    0    3
         3     9       4    0    4    0
  4      1     2       4    0    0   10
         2     3       0    3    3    0
         3     9       3    0    0   10
  5      1     4       8    0    0    9
         2     4       8    0    8    0
         3     9       8    0    7    0
  6      1     1       0    4    0    6
         2     4       4    0    0    2
         3     8       0    4    3    0
  7      1     1       0    2    7    0
         2     1       9    0    6    0
         3     7       8    0    0    5
  8      1     3       6    0    8    0
         2     7       5    0    2    0
         3     8       2    0    0    1
  9      1     1       8    0    4    0
         2     5       0    7    0    9
         3     8       7    0    3    0
 10      1     4       6    0    8    0
         2     7       0    7    1    0
         3     9       2    0    0   10
 11      1     4       4    0    6    0
         2     8       1    0    3    0
         3     8       0    7    2    0
 12      1     3       7    0    5    0
         2     6       0    8    0    8
         3     7       0    7    0    7
 13      1     4       1    0    0    9
         2     6       0    6    0    6
         3     7       0    2    0    4
 14      1     1       6    0    0    9
         2     2       5    0   10    0
         3     3       0    5   10    0
 15      1     2       0    4    9    0
         2     3       9    0    0    7
         3     4       8    0    9    0
 16      1     3       5    0    0    6
         2     8       0    6    0    5
         3    10       3    0    0    4
 17      1     6       0    1    0    8
         2     6       9    0    0    9
         3    10       7    0    9    0
 18      1     1       0    3    4    0
         2     3       6    0    0    3
         3     9       0    2    0    2
 19      1     2       3    0    6    0
         2     5       0    6    5    0
         3     5       1    0    4    0
 20      1     3       0    7    0   10
         2     7       0    7    0    5
         3     8       0    4    8    0
 21      1     4       0    7    0    5
         2     6       0    7    0    4
         3     7       0    7    5    0
 22      1     0       0    0    0    0
************************************************************************
RESOURCEAVAILABILITIES:
  R 1  R 2  N 1  N 2
   13   12  114  130
************************************************************************
MAXIMAL LAGS:
from  to  type  delay
    1   12   ES      0
    1    2   ES      0
    2   12   ES      0
    1    3   ES      0
    3   12   ES      0
    1    4   ES      0
    4   12   ES      0
    1    5   ES      0
    5   12   ES      0
    1    6   ES      0
    6   12   ES      0
    1    7   ES      0
    7   12   ES      0
    1    8   ES      0
    8   12   ES      0
    1    9   ES      0
    9   12   ES      0
    1   10   ES      0
   10   12   ES      0
    1   11   ES      0
   11   12   ES      0
    1   12   ES      0
    2    6   SS      2
    2    6   SE      7
    2    6   ES     -4
    2    6   EE     -7
    2    7   SS      8
    2    7   SE     12
    2    7   ES     10
    2    7   EE      4
    3    8   SS     -9
    3    8   SE      3
    3    8   ES      7
    3    8   EE     -5
    3   11   SS     10
    3   11   SE     -3
    3   11   ES    -11
    3   11   EE      0
    4    5   SS     -2
    4    5   SE      9
    4    5   ES     -7
    4    5   EE     10
    4    7   SS      3
    4    7   SE      2
    4    7   ES     -1
    4    7   EE      4
    4   11   SS     -3
    4   11   SE     -3
    4   11   ES      8
    4   11   EE     10
    5   10   SS      0
    5   10   SE      1
    5   10   ES     -5
    5   10   EE     -3
    6    9   SS      9
    6    9   SE     -2
    6    9   ES     -6
    6    9   EE     -5
    6   16   SS      2
    6   16   SE     -8
    6   16   ES     10
    6   16   EE     -8
    7    8   SS    -11
    7    8   SE    -10
    7    8   ES    -11
    7    8   EE      6
    7   10   SS     -9
    7   10   SE     -8
    7   10   ES     -9
    7   10   EE      2
    8    9   SS     -8
    8    9   SE     -8
    8    9   ES     11
    8    9   EE    -10
    8   14   SS     -3
    8   14   SE     12
    8   14   ES     -2
    8   14   EE     10
    8   21   SS     -2
    8   21   SE      6
    8   21   ES     -5
    8   21   EE     10
    9   19   SS      3
    9   19   SE      1
    9   19   ES      1
    9   19   EE     -9
    9   20   SS      8
    9   20   SE      9
    9   20   ES      9
    9   20   EE      5
   10   13   SS     11
   10   13   SE      6
   10   13   ES     -3
   10   13   EE     10
   10   19   SS     -6
   10   19   SE      3
   10   19   ES      8
   10   19   EE    -11
   11   17   SS     -1
   11   17   SE     -7
   17   11   SE      0
   11   17   ES      0
   11   17   EE     -6
   11   21   SS     -1
   11   21   SE    -10
   11   21   ES    -11
   11   21   EE    -11
   12   20   SS     -4
   12   20   SE      0
   12   20   ES     -7
   12   20   EE      3
   13   15   SS      2
   13   15   SE      9
   13   15   ES      0
   13   15   EE     10
   13   21   SS     -2
   13   21   SE      2
   13   21   ES     -8
   13   21   EE     -2
   14   15   SS     11
   14   15   SE     10
   14   15   ES      1
   14   15   EE      9
   14   16   SS     -2
   14   16   SE     12
   14   16   ES      6
   14   16   EE     10
   15   17   SS     -7
   15   17   SE    -12
   15   17   ES     -7
   15   17   EE     -4
   16   17   SS      1
   16   17   SE    -10
   16   17   ES      3
   16   17   EE     -2
   16   19   SS     -8
   16   19   SE    -11
   16   19   ES     -8
   16   19   EE     -5
   17   18   SS      4
   17   18   SE      7
   17   18   ES      3
   17   18   EE     -4
   18   20   SS     -6
   18   20   SE     11
   18   20   ES     -7
   18   20   EE      1
   19   22   SS    -11
   19   22   SE     12
   19   22   ES    -12
   19   22   EE      8
   20   22   SS     -1
   20   22   SE     10
   20   22   ES     -2
   20   22   EE      7
   21   22   SS     -1
   21   22   SE     -2
   21   22   ES    -12
   21   22   EE     -9
************************************************************************
